Solver command line: ['C:\\Program Files\\IBM\\ILOG\\CPLEX_Studio2211\\cplex\\bin\\x64_win64\\cplex.exe']


Welcome to IBM(R) ILOG(R) CPLEX(R) Interactive Optimizer 22.1.1.0
  with Simplex, Mixed Integer & Barrier Optimizers
5725-A06 5725-A29 5724-Y48 5724-Y49 5724-Y54 5724-Y55 5655-Y21
Copyright IBM Corp. 1988, 2022.  All Rights Reserved.

Type 'help' for a list of available commands.
Type 'help' followed by a command name for more
information on commands.

CPLEX> Logfile 'cplex.log' closed.
Logfile 'C:\Users\wangy\Documents\GitHub\re_optimization\result_site_specific\tmpom8gyqlm.cplex.log' open.
CPLEX> Problem 'C:\Users\wangy\Documents\GitHub\re_optimization\result_site_specific\tmpmgy3ljz7.pyomo.lp' read.
Read time = 0.19 sec. (6.21 ticks)
CPLEX> Problem name         : C:\Users\wangy\Documents\GitHub\re_optimization\result_site_specific\tmpmgy3ljz7.pyomo.lp
Objective sense      : Minimize
Variables            :   43845  [Nneg: 23381,  Free: 4400,  Binary: 4,
                                 Other: 16060]
Objective nonzeros   :      11
Linear constraints   :   64280  [Less: 35051,  Greater: 3,  Equal: 29226]
  Nonzeros           :  154864
  RHS nonzeros       :    3875

Variables            : Min LB: 0.000000         Max UB: 1.000000       
Objective nonzeros   : Min   : 1.000000         Max   : 1.000000       
Linear constraints   :
  Nonzeros           : Min   : 0.004791441      Max   : 100000.0       
  RHS nonzeros       : Min   : 0.005000000      Max   : 1000.000       
CPLEX> Version identifier: 22.1.1.0 | 2022-11-27 | 9160aff4d
Tried aggregator 3 times.
MIP Presolve eliminated 41311 rows and 22332 columns.
Aggregator did 7269 substitutions.
Reduced MIP has 15700 rows, 14244 columns, and 45169 nonzeros.
Reduced MIP has 2 binaries, 0 generals, 0 SOSs, and 0 indicators.
Presolve time = 0.11 sec. (134.71 ticks)
Found incumbent of value 188938.400748 after 0.14 sec. (156.78 ticks)
Probing time = 0.00 sec. (0.86 ticks)
Tried aggregator 1 time.
Detecting symmetries...
Reduced MIP has 15700 rows, 14244 columns, and 45169 nonzeros.
Reduced MIP has 2 binaries, 0 generals, 0 SOSs, and 0 indicators.
Presolve time = 0.03 sec. (27.28 ticks)
Probing time = 0.00 sec. (0.80 ticks)
MIP emphasis: balance optimality and feasibility.
MIP search method: dynamic search.
Parallel mode: deterministic, using up to 16 threads.
Root relaxation solution time = 0.42 sec. (408.33 ticks)

        Nodes                                         Cuts/
   Node  Left     Objective  IInf  Best Integer    Best Bound    ItCnt     Gap

*     0+    0                       188938.4007    -2684.1275           101.42%
*     0+    0                         3559.8090    -2684.1275           175.40%
      0     0     3410.9321     1     3559.8090     3410.9321       48    4.18%
*     0+    0                         3559.7025     3410.9321             4.18%
      0     0        cutoff           3559.7025                    215    0.00%
Elapsed time = 0.75 sec. (715.68 ticks, tree = 0.01 MB, solutions = 3)

Root node processing (before b&c):
  Real time             =    0.75 sec. (717.78 ticks)
Parallel b&c, 16 threads:
  Real time             =    0.00 sec. (0.00 ticks)
  Sync time (average)   =    0.00 sec.
  Wait time (average)   =    0.00 sec.
                          ------------
Total (root+branch&cut) =    0.75 sec. (717.78 ticks)

Solution pool: 3 solutions saved.

MIP - Integer optimal solution:  Objective =  3.5597024864e+03
Solution time =    0.75 sec.  Iterations = 215  Nodes = 0
Deterministic time = 717.90 ticks  (957.20 ticks/sec)

CPLEX> Incumbent solution written to file 'C:\Users\wangy\Documents\GitHub\re_optimization\result_site_specific\tmp03rxxz5u.cplex.sol'.
CPLEX> 
